<number of tasks>
50

<cycle time>
1000

<order strength>
0.595


<task times>
1 114
2 41
3 70
4 300
5 185
6 185
7 313
8 71
9 270
10 339
11 479
12 24
13 511
14 537
15 203
16 145
17 486
18 129
19 532
20 256
21 122
22 362
23 262
24 501
25 266
26 67
27 75
28 23
29 373
30 152
31 163
32 102
33 110
34 57
35 130
36 537
37 225
38 208
39 214
40 504
41 376
42 506
43 78
44 537
45 73
46 56
47 215
48 66
49 107
50 64

<precedence relations>
1,23
2,21
3,21
4,21
5,8
5,9
6,8
6,9
7,8
7,9
8,23
9,10
9,11
9,12
9,13
9,14
10,39
11,23
12,23
13,15
13,16
13,17
14,15
14,16
14,17
15,39
16,21
17,18
17,19
17,20
17,21
17,22
18,39
19,23
20,23
21,24
21,25
21,26
21,27
21,28
21,29
21,30
22,23
22,30
23,31
23,32
23,33
23,34
23,35
24,41
24,42
25,48
26,36
26,38
27,36
28,37
28,40
28,41
28,49
28,50
29,35
29,38
30,35
30,38
31,37
31,38
31,39
32,36
32,38
33,37
33,50
34,36
35,36
35,37
36,39
37,42
38,40
38,41
38,50
39,43
39,44
39,45
39,46
39,47
40,48
42,48
45,49
47,49
47,50

<end>
